53594.1,51.58,62.56
47501.47,58.2,70.58
53437.64,51.74,62.74
49877.81,55.43,67.22
50300.82,54.96,66.65
55311.72,49.98,60.61
48597.8,56.89,68.99
47193.51,58.58,71.04
43529.33,63.51,77.02
50420.95,54.83,66.49
51121.24,54.08,65.58
45053.37,61.36,74.41
46535.14,59.41,72.04
53153.37,52.01,63.07
44934.53,61.52,74.61
46244.45,59.78,72.5
44698.17,61.85,75.01
51036.16,54.17,65.69
42130.05,65.62,79.58
38464.46,71.87,87.16
